c ---- [ banner ] ------------------------------------------------------------
c
c KISSAT SAT Solver
c Copyright (c) 2019-2020 Armin Biere JKU Linz
c 
c Version 1.0.3 baef4609163f542dc08f43aef02ce8da0581a2b5
c gcc (Ubuntu 9.3.0-10ubuntu2) 9.3.0 -W -Wall -O3 -DNEMBEDDED -DNDEBUG -DNMETRICS -DNSTATISTICS
c Tue Sep 1 18:45:57 CEST 2020 Linux dw-System-Product-Name 5.4.0-42-generic x86_64
c
c ---- [ parsing ] -----------------------------------------------------------
c
c opened and reading DIMACS file:
c 
c   cycl1.in.cnf
c 
c parsed 'p cnf 50 4817' header
c closing input after reading 119708 bytes (117 KB)
c finished parsing after 0.00 seconds
c
c ---- [ solving ] -----------------------------------------------------------
c
c  seconds reductions redundant irredundant
c         MB   restarts    trail   variables
c          level  conflicts   glue     remaining
c
c *  0.00  3 0  0  0   0   0 0% 0 4766 16 31%
c {  0.00  3 0  0  0   0   0 0% 0 4766 16 31%
c }  0.00  3 2  0  0   5   2 81% 2 4766 16 31%
c 1  0.00  3 2  0  0   5   2 81% 2 4766 16 31%
c
c ---- [ result ] ------------------------------------------------------------
c
s SATISFIABLE
v -1 -2 3 4 -5 -6 7 -8 -9 10 -11 12 -13 -14 15 -16 -17 18 19 -20 -21 -22 -23
v -24 -25 -26 -27 28 29 -30 -31 32 -33 -34 35 -36 37 -38 -39 40 -41 -42 43 44
v -45 -46 -47 -48 -49 -50 0
c
c ---- [ profiling ] ---------------------------------------------------------
c
c           0.00   88.44 %  parse
c           0.00    7.17 %  search
c           0.00    4.89 %  focused
c           0.00    0.00 %  simplify
c =============================================
c           0.00  100.00 %  total
c
c ---- [ statistics ] --------------------------------------------------------
c
c conflicts:                                5             1697.79 per second
c decisions:                                5                1.00 per conflict
c propagations:                            63            21392    per second
c
c ---- [ resources ] ---------------------------------------------------------
c
c maximum-resident-set-size:          2678784 bytes          3 MB
c process-time:                             0s               0.00 seconds
c
c ---- [ shutting down ] -----------------------------------------------------
c
c exit 10
